NAME : in_house_8_0
TYPE : TSP
DIMENSION : 8
EDGE_WEIGHT_TYPE : EXPLICIT
EDGE_WEIGHT_FORMAT : UPPER_ROW
COMMENT : INVERSION_SHIFT=6
EDGE_WEIGHT_SECTION
8
25
34
16
11
62
6
36
4
22
57
30
11
57
12
33
39
11
5
16
62
25
29
7
23
39
10
15
